
******************************************************************************
This program contains Ipopt, a library for large-scale nonlinear optimization.
 Ipopt is released as open source code under the Eclipse Public License (EPL).
         For more information visit http://projects.coin-or.org/Ipopt
******************************************************************************

This is Ipopt version 3.12.3, running with linear solver mumps.
NOTE: Other linear solvers might be more efficient (see Ipopt documentation).

Number of nonzeros in equality constraint Jacobian...:   192417
Number of nonzeros in inequality constraint Jacobian.:    56537
Number of nonzeros in Lagrangian Hessian.............:    36456

Total number of variables............................:    40541
                     variables with only lower bounds:        0
                variables with lower and upper bounds:        0
                     variables with only upper bounds:        0
Total number of equality constraints.................:    36456
Total number of inequality constraints...............:    48539
        inequality constraints with only lower bounds:     3999
   inequality constraints with lower and upper bounds:    40541
        inequality constraints with only upper bounds:     3999

iter    objective    inf_pr   inf_du lg(mu)  ||d||  lg(rg) alpha_du alpha_pr  ls
   0 1.5996400e+000 6.93e+002 1.68e+000  -1.0 0.00e+000    -  0.00e+000 0.00e+000   0
   1 2.7692620e+002 5.43e+001 1.94e+002  -1.0 1.00e+000   0.0 6.27e-001 9.96e-001h  1
   2 2.7398917e+002 8.55e+000 6.31e+001  -1.0 8.56e-001  -0.5 8.47e-001 1.00e+000f  1
   3 2.6069993e+002 1.83e+000 2.50e+000  -1.0 2.20e+000  -1.0 1.00e+000 1.00e+000f  1
   4 2.5599802e+002 1.73e-001 2.37e-001  -1.0 7.98e-001  -0.5 1.00e+000 1.00e+000f  1
   5 2.4107449e+002 1.82e+000 1.77e-001  -1.7 1.62e+000  -1.0 1.00e+000 1.00e+000f  1
   6 2.3528964e+002 2.65e-001 1.53e-001  -2.5 5.79e-001  -0.6 1.00e+000 1.00e+000f  1
   7 2.3316388e+002 6.43e-002 1.49e-001  -2.5 2.12e-001  -0.2 1.00e+000 1.00e+000f  1
   8 2.2705664e+002 8.89e-001 1.40e-001  -2.5 5.99e-001  -0.6 1.00e+000 1.00e+000f  1
   9 2.2482610e+002 1.87e-001 1.39e-001  -2.5 2.23e-001  -0.2 1.00e+000 1.00e+000f  1
iter    objective    inf_pr   inf_du lg(mu)  ||d||  lg(rg) alpha_du alpha_pr  ls
  10 2.1844396e+002 4.84e+000 1.35e-001  -2.5 6.49e-001  -0.7 1.00e+000 1.00e+000f  1
  11 2.1611676e+002 1.11e+000 1.36e-001  -2.5 2.44e-001  -0.3 1.00e+000 1.00e+000f  1
  12 2.0944424e+002 3.01e+001 1.26e-001  -2.5 6.80e-001  -0.7 1.00e+000 1.00e+000f  1
  13 2.0700063e+002 4.87e-001 1.25e-001  -2.5 2.53e-001  -0.3 1.00e+000 1.00e+000f  1
  14 2.0006715e+002 6.90e+000 1.21e-001  -2.5 7.36e-001  -0.8 1.00e+000 1.00e+000f  1
  15 1.9755004e+002 1.14e+000 1.20e-001  -2.5 2.73e-001  -0.4 1.00e+000 1.00e+000f  1
  16 1.9041079e+002 2.08e+000 1.16e-001  -2.5 7.93e-001  -0.8 1.00e+000 1.00e+000f  1
  17 1.8781780e+002 2.75e-001 1.14e-001  -2.5 2.94e-001  -0.4 1.00e+000 1.00e+000f  1
  18 1.8049708e+002 2.19e+000 1.10e-001  -2.5 8.49e-001  -0.9 1.00e+000 1.00e+000f  1
  19 1.7783556e+002 8.81e-001 1.09e-001  -2.5 3.14e-001  -0.5 1.00e+000 1.00e+000f  1
iter    objective    inf_pr   inf_du lg(mu)  ||d||  lg(rg) alpha_du alpha_pr  ls
  20 1.7036462e+002 1.46e+001 1.05e-001  -2.5 9.05e-001  -0.9 1.00e+000 1.00e+000f  1
  21 1.6768408e+002 6.15e-001 1.03e-001  -2.5 3.34e-001  -0.5 1.00e+000 1.00e+000f  1
  22 1.6027781e+002 2.12e+000 9.79e-002  -2.5 9.53e-001  -1.0 1.00e+000 9.98e-001f  1
  23 1.5764055e+002 2.67e-001 9.43e-002  -2.5 3.44e-001  -0.6 1.00e+000 1.00e+000f  1
  24 1.5135923e+002 1.55e+001 9.12e-002  -2.5 9.95e-001  -1.0 1.00e+000 8.56e-001f  1
  25 1.4867938e+002 3.15e+000 1.59e-001  -2.5 3.70e-001  -0.6 1.00e+000 1.00e+000f  1
  26 1.4274870e+002 1.01e+001 1.61e-001  -2.5 1.05e+000  -1.1 1.00e+000 8.10e-001f  1
  27 1.4011672e+002 3.44e+000 4.96e-001  -2.5 3.90e-001  -0.7 1.00e+000 1.00e+000f  1
  28 1.3294293e+002 1.88e+001 1.18e-001  -2.5 1.10e+000  -1.1 1.00e+000 1.00e+000f  1
  29 1.2573516e+002 4.01e+001 2.54e-001  -2.5 2.82e+000  -1.6 1.00e+000 4.14e-001f  1
iter    objective    inf_pr   inf_du lg(mu)  ||d||  lg(rg) alpha_du alpha_pr  ls
  30 1.2129507e+002 1.45e+001 2.39e-001  -2.5 1.09e+000  -1.2 1.00e+000 7.11e-001f  1
  31 1.1349445e+002 7.44e+000 1.48e-001  -2.5 2.80e+000  -1.7 1.00e+000 5.13e-001f  1
  32 1.0969573e+002 3.09e+000 1.65e-001  -2.5 1.07e+000  -1.2 1.00e+000 7.01e-001f  1
  33 1.0251870e+002 1.85e+000 6.93e-002  -2.5 2.70e+000  -1.7 1.00e+000 5.46e-001f  1
  34 9.8547714e+001 1.13e+000 5.29e-002  -2.5 1.03e+000  -1.3 1.00e+000 8.51e-001f  1
  35 9.3244265e+001 1.35e+001 1.16e-001  -2.5 2.56e+000  -1.8 1.00e+000 4.66e-001f  1
  36 9.2678928e+001 7.16e-001 8.72e-002  -2.5 1.33e-001  -0.4 1.00e+000 1.00e+000h  1
  37 9.1073506e+001 2.30e+000 1.32e-001  -2.5 3.87e-001  -0.9 1.00e+000 1.00e+000f  1
  38 8.6786585e+001 2.07e+001 2.17e+000  -2.5 1.06e+000  -1.4 1.00e+000 1.00e+000f  1
  39 8.5252359e+001 8.94e+000 1.16e-001  -2.5 3.86e-001  -1.0 1.00e+000 1.00e+000f  1
iter    objective    inf_pr   inf_du lg(mu)  ||d||  lg(rg) alpha_du alpha_pr  ls
  40 8.1176077e+001 8.83e+001 1.70e-001  -2.5 1.05e+000  -1.4 1.00e+000 1.00e+000f  1
  41 7.4689776e+001 2.56e+001 1.54e-001  -2.5 2.42e+000  -1.9 1.00e+000 6.77e-001f  1
  42 7.1388252e+001 2.94e+000 2.85e-002  -2.5 9.03e-001  -1.5 1.00e+000 1.00e+000f  1
  43 7.0220368e+001 1.78e-001 2.82e-002  -2.5 3.34e-001  -1.1 1.00e+000 1.00e+000f  1
  44 6.7055167e+001 1.00e+000 2.78e-002  -2.5 9.89e-001  -1.6 1.00e+000 1.00e+000f  1
  45 6.1472291e+001 9.37e+000 1.43e-001  -2.5 2.85e+000  -2.0 1.00e+000 7.44e-001f  1
  46 5.8911251e+001 3.95e+000 3.15e-002  -2.5 1.06e+000  -1.6 1.00e+000 1.00e+000f  1
  47 5.2838440e+001 7.96e+000 5.98e-002  -2.5 3.06e+000  -2.1 1.00e+000 1.00e+000f  1
  48 5.0857095e+001 4.55e-001 2.51e-002  -2.5 1.13e+000  -1.7 1.00e+000 1.00e+000f  1
  49 4.8053380e+001 5.48e+000 6.50e-001  -3.8 3.22e+000  -2.1 8.43e-001 4.16e-001f  1
iter    objective    inf_pr   inf_du lg(mu)  ||d||  lg(rg) alpha_du alpha_pr  ls
  50 4.6403033e+001 2.18e+000 3.48e-001  -3.8 1.22e+000  -1.7 1.00e+000 6.08e-001f  1
  51 4.4045203e+001 1.43e+000 3.53e-001  -3.8 3.52e+000  -2.2 1.00e+000 3.78e-001f  1
  52 4.2577456e+001 1.90e+001 1.90e-001  -3.8 1.68e+000  -1.8 1.00e+000 6.24e-001f  1
  53 4.1629621e+001 1.58e+001 4.68e-001  -3.8 3.83e+000  -2.2 1.76e-003 1.67e-001f  1
  54 4.0949821e+001 1.12e+001 3.42e-001  -3.8 1.47e+000  -1.8 1.00e+000 3.04e-001h  1
  55 3.9965123e+001 9.31e+000 2.71e-001  -3.8 4.22e+000  -2.3 3.90e-001 1.70e-001f  1
  56 3.8715081e+001 4.43e+000 1.22e-001  -3.8 1.62e+000  -1.9 1.00e+000 5.60e-001f  1
  57 3.7769998e+001 3.69e+000 5.01e-001  -3.8 4.62e+000  -2.3 1.00e+000 1.68e-001f  1
  58 3.6881324e+001 2.24e+000 2.51e-001  -3.8 1.78e+000  -1.9 1.00e+000 4.07e-001f  1
  59 3.5178696e+001 1.56e+000 4.94e-001  -3.8 5.05e+000  -2.4 1.00e+000 3.06e-001f  1
iter    objective    inf_pr   inf_du lg(mu)  ||d||  lg(rg) alpha_du alpha_pr  ls
  60 3.3994373e+001 7.02e-001 1.33e-001  -3.8 1.94e+000  -2.0 1.00e+000 5.68e-001f  1
  61 3.2342539e+001 7.59e-001 2.76e-001  -3.8 5.44e+000  -2.4 1.00e+000 3.15e-001f  1
  62 3.1455760e+001 4.50e-001 7.39e-002  -3.8 2.09e+000  -2.0 1.00e+000 4.49e-001f  1
  63 2.9836448e+001 5.91e-001 1.23e-001  -3.8 5.84e+000  -2.5 1.00e+000 3.21e-001f  1
  64 2.9106902e+001 7.63e-001 4.93e-002  -3.8 2.25e+000  -2.1 1.00e+000 3.85e-001f  1
  65 2.8599113e+001 1.05e+000 1.97e-002  -3.8 8.51e-001  -1.6 1.00e+000 7.16e-001h  1
  66 2.8338329e+001 4.29e-002 4.11e-002  -3.8 3.19e-001  -1.2 1.00e+000 1.00e+000f  1
  67 2.7592380e+001 1.09e-001 5.91e-002  -3.8 9.43e-001  -1.7 1.00e+000 1.00e+000f  1
  68 2.6986458e+001 1.29e-001 3.71e-002  -3.8 2.71e+000  -2.2 1.00e+000 2.98e-001f  1
  69 2.5529246e+001 3.41e+000 4.36e-002  -3.8 7.44e+000  -2.6 1.00e+000 2.82e-001f  1
iter    objective    inf_pr   inf_du lg(mu)  ||d||  lg(rg) alpha_du alpha_pr  ls
  70 2.4198244e+001 8.91e+000 1.54e-001  -3.8 2.91e+000  -2.2 1.00e+000 6.83e-001f  1
  71 2.2833504e+001 6.34e+000 1.10e-001  -3.8 7.75e+000  -2.7 1.00e+000 2.90e-001f  1
  72 2.1637718e+001 2.08e+000 3.56e-002  -3.8 3.03e+000  -2.3 1.00e+000 6.75e-001h  1
  73 2.0215472e+001 1.40e+000 3.33e-002  -3.8 7.98e+000  -2.7 1.00e+000 3.33e-001f  1
  74 2.0107273e+001 1.30e+000 2.24e-002  -3.8 2.97e+000  -2.3 1.00e+000 6.72e-002h  1
  75 1.9924564e+001 7.33e+000 2.14e-002  -3.8 2.34e+001  -2.8 4.13e-002 4.59e-002h  1
  76 1.9164247e+001 4.01e+000 1.35e-002  -3.8 3.07e+000  -2.4 1.00e+000 4.67e-001h  1
  77 1.8800652e+001 1.57e+000 1.33e-002  -3.8 1.16e+000  -1.9 1.00e+000 6.26e-001h  1
  78 1.7800925e+001 6.37e-001 1.27e-002  -3.8 3.28e+000  -2.4 1.00e+000 6.66e-001f  1
  79 1.7347094e+001 2.21e-001 1.24e-002  -3.8 1.22e+000  -2.0 1.00e+000 8.41e-001h  1
iter    objective    inf_pr   inf_du lg(mu)  ||d||  lg(rg) alpha_du alpha_pr  ls
  80 1.6963104e+001 9.57e-001 1.10e-002  -3.8 2.61e+000  -2.5 6.49e-001 2.85e-001f  1
  81 1.6841525e+001 1.21e+000 1.55e-001  -3.8 6.31e+000  -2.9 1.00e+000 3.81e-002f  1
  82 1.6250733e+001 6.67e-001 1.54e-001  -3.8 2.42e+000  -2.5 1.00e+000 4.54e-001f  1
  83 1.4543992e+001 2.16e+000 2.25e-002  -3.8 6.52e+000  -3.0 1.00e+000 5.70e-001f  1
  84 1.4166842e+001 1.53e+000 7.01e-002  -3.8 2.46e+000  -2.6 1.00e+000 3.65e-001h  1
  85 1.3889510e+001 1.70e+000 2.37e-001  -3.8 6.77e+000  -3.1 1.00e+000 1.14e-001h  1
  86 1.3274483e+001 1.18e+000 9.19e-002  -3.8 2.69e+000  -2.6 1.00e+000 6.38e-001h  1
  87 1.2166485e+001 2.01e+000 5.56e-002  -3.8 7.23e+000  -3.1 8.44e-001 5.10e-001f  1
  88 1.1572075e+001 1.47e+000 1.02e-002  -3.8 2.75e+000  -2.7 1.00e+000 7.72e-001h  1
  89 1.0765992e+001 8.28e-001 4.57e-002  -3.8 7.24e+000  -3.2 9.87e-001 4.58e-001f  1
iter    objective    inf_pr   inf_du lg(mu)  ||d||  lg(rg) alpha_du alpha_pr  ls
  90 1.0005039e+001 1.35e+000 1.49e-001  -3.8 1.69e+001  -3.6 7.78e-001 2.24e-001f  1
  91 9.6459347e+000 9.99e-001 4.43e-002  -3.8 6.70e+000  -3.2 1.00e+000 2.60e-001h  1
  92 9.2992874e+000 3.91e+000 3.37e-002  -3.8 1.52e+001  -3.7 3.39e-001 1.26e-001h  1
  93 9.0444903e+000 3.08e+000 9.27e-002  -3.8 6.19e+000  -3.3 1.00e+000 2.13e-001h  1
  94 8.7295876e+000 2.68e+000 4.89e-002  -3.8 1.38e+001  -3.7 8.35e-001 1.31e-001h  1
  95 8.2605868e+000 1.51e+000 2.47e-002  -3.8 5.77e+000  -3.3 6.46e-001 4.64e-001h  1
  96 7.8751120e+000 1.28e+000 2.64e-002  -3.8 1.40e+001  -3.8 6.01e-001 1.99e-001h  1
  97 7.4067899e+000 1.28e+000 1.99e-002  -3.8 5.78e+000  -3.4 1.00e+000 5.91e-001h  1
  98 7.0938986e+000 1.26e+000 1.67e-002  -3.8 1.27e+001  -3.8 7.16e-001 2.10e-001h  1
  99 6.9174175e+000 9.48e-001 9.81e-003  -3.8 5.06e+000  -3.4 1.00e+000 2.88e-001h  1
iter    objective    inf_pr   inf_du lg(mu)  ||d||  lg(rg) alpha_du alpha_pr  ls
 100 6.6915464e+000 1.43e-001 8.17e-003  -3.8 1.96e+000  -3.0 1.00e+000 1.00e+000h  1
 101 6.6125170e+000 3.95e-002 2.01e-003  -3.8 7.24e-001  -2.6 1.00e+000 1.00e+000h  1
 102 6.5529258e+000 8.29e-002 6.88e-003  -3.8 2.08e+000  -3.0 1.00e+000 2.91e-001h  1
 103 6.3456707e+000 4.85e+000 1.38e-002  -3.8 5.72e+000  -3.5 1.00e+000 4.27e-001f  1
 104 6.1727240e+000 5.07e-001 3.14e-003  -3.8 2.17e+000  -3.1 1.00e+000 1.00e+000h  1
 105 6.0987848e+000 1.68e+000 7.26e-003  -3.8 5.27e+000  -3.6 7.21e-001 1.91e-001h  1
 106 6.0800022e+000 2.50e-001 2.15e-003  -3.8 3.69e-001  -2.2 1.00e+000 1.00e+000h  1
 107 6.0501969e+000 2.98e-001 1.56e-003  -3.8 7.99e-001  -2.7 1.00e+000 5.36e-001h  1
 108 6.0215118e+000 1.19e+001 2.01e-002  -3.8 4.60e+000  -3.2 1.02e-001 1.95e-001f  1
 109 6.0052286e+000 1.12e+001 1.62e-002  -3.8 1.10e+000  -2.8 1.00e+000 2.72e-001h  1
iter    objective    inf_pr   inf_du lg(mu)  ||d||  lg(rg) alpha_du alpha_pr  ls
 110 5.9439585e+000 6.78e+000 9.84e-003  -3.8 2.55e+000  -3.2 1.00e+000 4.10e-001h  1
 111 5.8422126e+000 5.69e+000 9.96e-003  -3.8 6.74e+000  -3.7 1.00e+000 3.10e-001h  1
 112 5.7582255e+000 5.18e+000 1.91e-002  -3.8 1.17e+001  -4.2 1.00e+000 1.44e-001h  1
 113 5.6025281e+000 5.66e+000 5.73e-003  -3.8 4.84e+000  -3.8 1.00e+000 6.62e-001h  1
 114 5.4793119e+000 4.00e+000 7.52e-003  -3.8 1.19e+001  -4.2 6.92e-001 3.38e-001h  1
 115 5.3729298e+000 1.36e+000 2.33e-003  -3.8 4.55e+000  -3.8 1.00e+000 8.02e-001h  1
 116 5.3335502e+000 3.48e-001 6.40e-004  -3.8 1.52e+000  -3.4 1.00e+000 1.00e+000h  1
 117 5.3207994e+000 9.78e-002 5.81e-004  -3.8 5.38e-001  -3.0 1.00e+000 1.00e+000h  1
 118 5.2871953e+000 5.41e+000 4.43e-003  -3.8 1.94e+000  -3.4 1.00e+000 1.00e+000h  1
 119 5.2689648e+000 2.26e+000 1.08e-002  -3.8 1.12e+000  -3.0 1.00e+000 1.00e+000h  1
iter    objective    inf_pr   inf_du lg(mu)  ||d||  lg(rg) alpha_du alpha_pr  ls
 120 5.2343792e+000 4.18e+000 1.34e-002  -3.8 2.72e+000  -3.5 1.00e+000 1.00e+000h  1
 121 5.1957043e+000 1.63e+000 4.31e-003  -3.8 6.88e+000  -4.0 1.00e+000 7.16e-001h  1
 122 5.1855796e+000 6.91e-001 1.38e-003  -3.8 2.42e+000  -3.5 1.00e+000 6.89e-001h  1
 123 5.1558100e+000 2.66e+000 1.33e-003  -3.8 6.55e+000  -4.0 1.00e+000 1.00e+000h  1
 124 5.1457648e+000 1.94e+000 7.10e-003  -3.8 1.44e+001  -4.5 1.00e+000 2.71e-001h  1
 125 5.1409375e+000 8.30e-001 1.59e-003  -3.8 4.56e+000  -4.1 1.00e+000 5.72e-001h  1
 126 5.1438366e+000 1.76e+001 1.15e-003  -3.8 5.63e+000  -4.6 1.00e+000 1.00e+000h  1
 127 5.1558874e+000 9.41e+000 2.80e-003  -3.8 9.13e+000  -5.0 8.54e-001 4.75e-001h  1
 128 5.1733272e+000 9.72e-001 3.69e-004  -3.8 3.23e+000  -4.6 1.00e+000 1.00e+000h  1
 129 5.1977527e+000 2.30e+000 3.06e-004  -3.8 3.63e+000  -5.1 1.00e+000 1.00e+000h  1
iter    objective    inf_pr   inf_du lg(mu)  ||d||  lg(rg) alpha_du alpha_pr  ls
 130 5.2139812e+000 2.34e+001 1.13e-003  -3.8 1.50e+001    -  1.00e+000 8.06e-001h  1
 131 5.2153236e+000 3.36e-001 1.73e-004  -3.8 1.31e+000  -4.7 1.00e+000 1.00e+000h  1
 132 5.2158092e+000 1.21e+000 1.10e-004  -3.8 3.58e-001  -4.2 1.00e+000 1.00e+000h  1
 133 5.2159617e+000 1.17e+000 1.72e-004  -3.8 2.45e-001  -3.8 1.00e+000 1.00e+000h  1
 134 5.2161133e+000 2.94e+000 6.34e-004  -3.8 7.59e-001  -4.3 1.00e+000 4.65e-001h  2
 135 5.2160282e+000 2.60e+000 4.23e-003  -3.8 9.48e+000  -4.8 1.00e+000 1.25e-001h  4
 136 5.2158944e+000 2.13e-001 4.39e-005  -3.8 1.16e-001  -3.4 1.00e+000 1.00e+000h  1
 137 5.2158227e+000 7.87e-001 4.51e-004  -3.8 6.41e-001  -3.9 1.00e+000 1.00e+000h  1
 138 5.2152279e+000 4.99e-001 1.79e-004  -3.8 5.38e-001  -3.5 1.00e+000 1.00e+000h  1
 139 5.2146978e+000 6.86e-002 2.35e-004  -3.8 2.65e-001  -3.1 1.00e+000 1.00e+000h  1
iter    objective    inf_pr   inf_du lg(mu)  ||d||  lg(rg) alpha_du alpha_pr  ls
 140 5.2134983e+000 1.42e+000 6.97e-004  -3.8 1.16e+000  -3.5 1.00e+000 1.00e+000h  1
 141 5.2101652e+000 5.90e+000 1.00e-002  -3.8 3.13e+000  -4.0 1.00e+000 1.00e+000h  1
 142 5.2087378e+000 1.96e+001 5.67e-003  -3.8 5.25e+001    -  7.22e-001 4.18e-001h  1
 143 5.2097578e+000 1.42e+001 1.47e-002  -3.8 1.65e+001    -  7.68e-002 1.00e+000h  1
 144 5.2142359e+000 2.96e+000 9.66e-003  -3.8 2.28e+001    -  6.38e-001 1.00e+000H  1
 145 5.2080366e+000 7.37e+000 5.08e-003  -3.8 2.51e+001    -  1.00e+000 9.05e-001h  1
 146 5.2086695e+000 6.40e+000 1.03e-003  -3.8 1.45e+001    -  4.45e-001 1.00e+000h  1
 147 5.2086974e+000 2.11e-001 1.34e-004  -3.8 2.50e+000    -  1.00e+000 1.00e+000h  1
 148 5.2086817e+000 3.59e-003 9.67e-007  -3.8 4.73e-001    -  1.00e+000 1.00e+000h  1
 149 4.5771230e+000 1.24e+001 5.78e-003  -5.7 1.39e+001    -  3.74e-001 3.89e-001f  1
iter    objective    inf_pr   inf_du lg(mu)  ||d||  lg(rg) alpha_du alpha_pr  ls
 150 4.1643047e+000 3.77e+001 1.24e-002  -5.7 1.49e+001    -  4.79e-001 3.62e-001h  1
 151 4.0771046e+000 2.76e+001 8.62e-003  -5.7 2.81e+000  -4.5 2.96e-001 3.10e-001h  1
 152 3.9779561e+000 2.13e+001 1.26e-002  -5.7 6.41e+000  -5.0 5.22e-001 2.29e-001h  1
 153 3.8873501e+000 1.31e+001 1.40e-002  -5.7 3.30e+000  -4.5 6.19e-001 3.91e-001h  1
 154 3.8301732e+000 1.11e+001 1.64e-002  -5.7 7.48e+000  -5.0 4.68e-001 1.50e-001h  1
 155 3.7981404e+000 9.25e+000 1.63e-002  -5.7 3.64e+000  -4.6 4.12e-001 1.67e-001h  1
 156 3.7435106e+000 3.73e+000 1.11e-002  -5.7 1.56e+000  -4.2 9.58e-001 6.04e-001h  1
 157 3.7180967e+000 1.02e+000 7.31e-003  -5.7 6.17e-001  -3.7 1.00e+000 7.36e-001h  1
 158 3.7069907e+000 1.05e-001 9.54e-004  -5.7 2.34e-001  -3.3 1.00e+000 9.23e-001h  1
 159 3.6909192e+000 1.97e-001 1.86e-003  -5.7 6.66e-001  -3.8 1.00e+000 5.83e-001h  1
iter    objective    inf_pr   inf_du lg(mu)  ||d||  lg(rg) alpha_du alpha_pr  ls
 160 3.6781109e+000 2.07e-001 6.18e-003  -5.7 1.79e+000  -4.3 1.00e+000 1.87e-001h  1
 161 3.6535713e+000 5.74e-001 7.03e-003  -5.7 4.02e+000  -4.7 4.79e-001 1.56e-001h  1
 162 3.6334426e+000 1.18e+000 4.75e-003  -5.7 1.68e+000  -4.3 1.70e-001 3.16e-001h  1
 163 3.6229076e+000 9.92e-001 2.09e-003  -5.7 7.13e-001  -3.9 1.00e+000 4.31e-001h  1
 164 3.6137921e+000 3.28e-001 9.46e-005  -5.7 2.74e-001  -3.5 9.61e-001 1.00e+000h  1
 165 3.6005388e+000 1.02e+000 1.14e-003  -5.7 7.45e-001  -3.9 1.00e+000 5.47e-001h  1
 166 3.5828364e+000 1.73e+000 1.73e-003  -5.7 1.91e+000  -4.4 6.91e-001 2.95e-001h  1
 167 3.5698544e+000 4.30e+001 1.76e-003  -5.7 1.72e+001  -4.9 6.17e-002 1.02e-001h  1
 168 3.5549052e+000 3.20e+001 1.91e-003  -5.7 1.87e+000  -4.5 8.22e-001 2.70e-001h  1
 169 3.5430789e+000 1.56e+001 9.97e-004  -5.7 7.31e-001  -4.0 7.53e-001 5.69e-001h  1
iter    objective    inf_pr   inf_du lg(mu)  ||d||  lg(rg) alpha_du alpha_pr  ls
 170 3.5287043e+000 1.09e+001 7.96e-004  -5.7 1.91e+000  -4.5 5.02e-001 2.94e-001h  1
 171 3.5127320e+000 8.53e+000 2.48e-003  -5.7 7.71e+000  -5.0 6.42e-001 1.64e-001h  1
 172 3.4987055e+000 5.05e+000 1.91e-003  -5.7 2.59e+000  -4.6 9.04e-001 3.46e-001h  1
 173 3.4939174e+000 3.44e+000 1.11e-003  -5.7 9.34e-001  -4.1 1.00e+000 3.10e-001h  1
 174 3.4748319e+000 1.52e+000 1.28e-003  -5.7 1.76e+000  -4.6 1.00e+000 5.43e-001h  1
 175 3.4710762e+000 1.43e+000 1.74e-003  -5.7 9.86e+000  -5.1 1.79e-001 5.94e-002h  1
 176 3.4661770e+000 7.49e-001 2.53e-004  -5.7 2.44e-001  -3.8 1.00e+000 1.00e+000h  1
 177 3.4655302e+000 1.67e+000 1.61e-003  -5.7 5.29e+000  -4.2 6.65e-002 4.88e-002h  1
 178 3.4626136e+000 3.32e+000 2.68e-003  -5.7 1.11e+000  -3.8 1.00e+000 5.77e-001h  1
 179 3.4571908e+000 1.88e+000 2.80e-003  -5.7 6.92e-001  -4.3 1.00e+000 4.33e-001h  1
iter    objective    inf_pr   inf_du lg(mu)  ||d||  lg(rg) alpha_du alpha_pr  ls
 180 3.4491854e+000 1.39e+000 1.69e-003  -5.7 2.87e+000  -4.8 4.30e-001 2.88e-001h  1
 181 3.4391897e+000 7.90e-001 1.56e-003  -5.7 1.00e+000  -4.3 3.84e-001 9.26e-001h  1
 182 3.4355551e+000 2.24e+000 8.90e-004  -5.7 4.26e-001  -3.9 6.72e-001 1.00e+000h  1
 183 3.4341681e+000 1.96e+000 3.46e-003  -5.7 1.79e+000  -4.4 9.65e-001 1.53e-001h  1
 184 3.4333708e+000 4.52e+000 3.63e-003  -5.7 2.43e+000  -4.0 1.00e+000 2.56e-001h  1
 185 3.4274261e+000 2.00e+000 1.86e-003  -5.7 1.10e+000  -4.5 5.13e-001 6.45e-001h  1
 186 3.4247478e+000 1.72e+000 4.19e-003  -5.7 3.85e+000  -4.9 7.25e-001 1.40e-001h  1
 187 3.4226627e+000 2.23e+000 3.13e-003  -5.7 1.22e+000  -4.5 3.49e-001 2.59e-001h  1
 188 3.4194692e+000 5.15e-001 7.06e-004  -5.7 4.10e-001  -4.1 1.00e+000 1.00e+000h  1
 189 3.4167981e+000 1.08e+000 4.58e-004  -5.7 2.08e+000  -4.6 5.07e-001 3.56e-001h  1
iter    objective    inf_pr   inf_du lg(mu)  ||d||  lg(rg) alpha_du alpha_pr  ls
 190 3.4150099e+000 1.41e+000 1.05e-003  -5.7 5.37e+000  -5.0 3.40e-001 1.12e-001h  1
 191 3.4113955e+000 6.64e-001 5.16e-004  -5.7 1.77e+000  -4.6 1.00e+000 5.28e-001h  1
 192 3.4109985e+000 1.09e-001 1.03e-004  -5.7 1.02e-001  -3.3 1.00e+000 1.00e+000h  1
 193 3.4100377e+000 1.64e+000 3.73e-004  -5.7 3.03e-001  -3.8 1.00e+000 9.54e-001h  1
 194 3.4075011e+000 7.58e-001 5.41e-004  -5.7 4.05e-001  -4.2 1.00e+000 1.00e+000f  1
 195 3.4038421e+000 8.03e-001 6.73e-004  -5.7 1.20e+000  -4.7 1.00e+000 6.60e-001h  1
 196 3.4022737e+000 1.64e+000 6.40e-003  -5.7 4.05e+000  -5.2 1.00e+000 1.63e-001h  1
 197 3.3982178e+000 7.74e-001 2.24e-004  -5.7 1.31e+000  -4.8 1.00e+000 1.00e+000h  1
 198 3.3968941e+000 1.21e+000 1.32e-004  -5.7 6.02e-001  -4.3 1.00e+000 1.00e+000h  1
 199 3.3964056e+000 1.53e+000 3.87e-003  -5.7 2.09e+000  -4.8 1.00e+000 1.65e-001h  1
iter    objective    inf_pr   inf_du lg(mu)  ||d||  lg(rg) alpha_du alpha_pr  ls
 200 3.3929986e+000 7.79e-001 4.82e-003  -5.7 4.46e+000  -5.3 1.00e+000 6.47e-001h  1
 201 3.3926055e+000 9.13e-001 6.67e-004  -5.7 2.55e-001  -4.0 1.00e+000 1.00e+000h  1
 202 3.3925618e+000 4.12e-002 1.69e-004  -5.7 5.04e-002  -2.6 1.00e+000 1.00e+000h  1
 203 3.3925049e+000 7.94e-002 5.92e-004  -5.7 6.81e-002  -3.1 1.00e+000 1.00e+000h  1
 204 3.3924141e+000 1.08e+000 3.83e-003  -5.7 1.61e+000  -3.6 5.76e-001 2.18e-001h  1
 205 3.3920511e+000 1.18e-001 1.91e-004  -5.7 2.68e-001  -4.1 1.00e+000 1.00e+000h  1
 206 3.3911535e+000 1.90e-001 1.36e-004  -5.7 8.36e-001  -4.5 1.00e+000 1.00e+000h  1
 207 3.3894299e+000 6.34e-001 1.55e-003  -5.7 2.95e+000  -5.0 1.00e+000 9.01e-001h  1
 208 3.3886917e+000 2.01e-001 8.97e-005  -5.7 1.26e+000  -4.6 1.00e+000 1.00e+000h  1
 209 3.3876314e+000 9.34e-001 2.52e-002  -5.7 7.02e+000  -5.1 1.00e+000 5.15e-001h  1
iter    objective    inf_pr   inf_du lg(mu)  ||d||  lg(rg) alpha_du alpha_pr  ls
 210 3.3866260e+000 2.58e+000 2.45e-003  -5.7 3.25e+000  -4.6 1.00e+000 9.10e-001h  1
 211 3.3858677e+000 1.61e+000 2.43e-002  -5.7 3.76e+000  -5.1 6.47e-001 4.30e-001h  1
 212 3.3852995e+000 1.43e+000 2.95e-002  -5.7 8.92e+000  -5.6 4.73e-001 1.56e-001h  1
 213 3.3846899e+000 1.41e+000 1.79e-002  -5.7 3.04e+001  -6.1 3.76e-001 7.79e-002h  1
 214 3.3831546e+000 1.42e+000 3.21e-002  -5.7 5.38e+001  -6.5 5.01e-001 1.50e-001h  1
 215 3.3827171e+000 1.39e+000 5.59e-002  -5.7 6.03e+001  -6.1 2.17e-001 5.02e-002h  1
 216 3.3825140e+000 1.60e+000 2.16e-002  -5.7 1.91e+000  -4.8 6.46e-001 4.66e-001h  1
 217 3.3823551e+000 7.38e-001 6.59e-003  -5.7 1.46e-001  -3.5 1.00e+000 6.96e-001h  1
 218 3.3822728e+000 2.63e+001 1.58e-002  -5.7 1.25e+001  -3.9 3.64e-002 9.93e-002h  1
 219 3.3818806e+000 1.37e+001 1.24e-002  -5.7 3.84e-001  -3.5 5.71e-001 4.61e-001h  1
iter    objective    inf_pr   inf_du lg(mu)  ||d||  lg(rg) alpha_du alpha_pr  ls
 220 3.3812160e+000 3.65e+000 7.17e-003  -5.7 8.11e-001  -4.0 1.00e+000 6.10e-001f  1
 221 3.3808684e+000 2.57e+000 4.91e-003  -5.7 1.29e+000  -4.5 1.00e+000 3.35e-001h  1
 222 3.3798213e+000 4.89e+000 2.17e-003  -5.7 3.83e+000  -4.9 7.38e-001 5.77e-001h  1
 223 3.3781530e+000 4.31e+000 1.22e-003  -5.7 1.26e+001  -5.4 3.44e-001 4.68e-001h  1
 224 3.3764784e+000 4.64e+000 3.12e-003  -5.7 3.09e+001  -5.9 4.47e-001 2.19e-001h  1
 225 3.3756369e+000 1.10e+001 3.13e-003  -5.7 1.04e+001  -5.5 5.45e-001 3.60e-001h  1
 226 3.3750437e+000 1.00e+001 1.26e-003  -5.7 3.38e+001  -6.0 4.66e-001 9.05e-002h  1
 227 3.3747070e+000 9.72e+000 1.15e-003  -5.7 4.32e+001  -6.4 1.20e-001 5.60e-002h  1
 228 3.3740855e+000 7.84e+000 1.56e-003  -5.7 3.82e+000  -5.1 4.85e-001 5.90e-001h  1
 229 3.3738505e+000 1.08e+000 5.32e-004  -5.7 1.80e-001  -3.8 1.00e+000 1.00e+000h  1
iter    objective    inf_pr   inf_du lg(mu)  ||d||  lg(rg) alpha_du alpha_pr  ls
 230 3.3737042e+000 1.49e+000 2.24e-004  -5.7 5.35e-001  -4.2 1.00e+000 1.00e+000h  1
 231 3.3734153e+000 1.24e+001 3.91e-004  -5.7 1.61e+000  -4.7 1.00e+000 1.00e+000h  1
 232 3.3731997e+000 4.51e+000 1.32e-004  -5.7 6.61e-001  -4.3 1.00e+000 1.00e+000h  1
 233 3.3727888e+000 3.93e-001 1.75e-004  -5.7 1.35e+000  -4.8 1.00e+000 1.00e+000h  1
 234 3.3726317e+000 3.82e-001 1.84e-003  -5.7 3.89e+000  -5.3 1.00e+000 2.15e-001h  1
 235 3.3721466e+000 1.83e+000 7.61e-004  -5.7 1.18e+001  -5.7 2.11e-001 3.18e-001h  1
 236 3.3718818e+000 1.43e+000 5.75e-004  -5.7 3.76e+000  -5.3 1.00e+000 3.53e-001h  1
 237 3.3713217e+000 4.43e+000 5.32e-004  -5.7 2.06e+001  -5.8 4.11e-001 3.55e-001h  1
 238 3.3711113e+000 4.29e+000 7.60e-004  -5.7 2.20e+002  -6.3 2.47e-002 2.98e-002h  1
 239 3.3709098e+000 1.14e+000 2.53e-002  -5.7 6.14e-001  -4.0 2.01e-001 1.00e+000h  1
iter    objective    inf_pr   inf_du lg(mu)  ||d||  lg(rg) alpha_du alpha_pr  ls
 240 3.3707929e+000 2.63e+000 1.10e-002  -5.7 9.30e-001  -4.5 9.17e-001 5.79e-001h  1
 241 3.3706867e+000 2.29e+000 9.16e-003  -5.7 8.01e+000  -5.0 6.00e-001 1.22e-001h  1
 242 3.3706454e+000 2.26e+000 1.73e-002  -5.7 1.50e+001  -4.6 2.81e-001 3.08e-002h  1
 243 3.3703565e+000 5.18e+000 5.27e-003  -5.7 2.60e+000  -4.1 5.30e-001 7.65e-001h  1
 244 3.3703223e+000 3.16e+000 8.66e-003  -5.7 2.83e+000  -4.6 2.89e-001 3.91e-001h  1
 245 3.3700819e+000 1.21e+000 8.14e-003  -5.7 2.99e+000  -5.1 3.18e-001 6.12e-001h  1
 246 3.3698260e+000 1.29e+000 2.00e-003  -5.7 1.20e+000  -4.7 5.44e-001 1.00e+000f  1
 247 3.3693198e+000 1.05e+000 3.92e-003  -5.7 4.14e+000  -5.1 6.02e-001 1.00e+000h  1
 248 3.3691528e+000 1.04e+000 3.86e-003  -5.7 2.36e+002    -  1.81e-002 1.67e-002h  1
 249 3.3686529e+000 1.40e+000 3.09e-003  -5.7 4.00e+001    -  3.10e-001 2.00e-001h  1
iter    objective    inf_pr   inf_du lg(mu)  ||d||  lg(rg) alpha_du alpha_pr  ls
 250 3.3685666e+000 1.29e+000 2.85e-003  -5.7 1.10e+001    -  7.54e-001 7.70e-002h  1
 251 3.3684160e+000 9.80e-001 2.16e-003  -5.7 2.24e+001    -  4.08e-001 2.43e-001h  1
 252 3.3681830e+000 6.73e-001 2.40e-004  -5.7 4.03e+000    -  1.00e+000 9.41e-001h  1
 253 3.3681844e+000 2.04e-001 1.54e-004  -5.7 1.60e+000    -  1.00e+000 1.00e+000h  1
 254 3.3681767e+000 7.42e-003 3.57e-006  -5.7 2.89e-001  -5.6 1.00e+000 1.00e+000h  1
 255 3.3681765e+000 2.11e-002 2.94e-005  -5.7 5.07e-001  -6.1 1.00e+000 1.00e+000h  1
 256 3.3681754e+000 3.99e-003 6.91e-006  -5.7 2.42e-001  -5.7 1.00e+000 1.00e+000h  1
 257 3.3681718e+000 4.71e-003 2.06e-004  -5.7 1.30e+000  -6.1 1.00e+000 1.00e+000H  1
 258 3.3681701e+000 3.73e-002 1.13e-004  -5.7 7.94e-001  -5.7 1.00e+000 1.00e+000h  1
 259 3.3681654e+000 5.80e-003 2.37e-005  -5.7 3.54e-001  -5.3 1.00e+000 1.00e+000h  1
iter    objective    inf_pr   inf_du lg(mu)  ||d||  lg(rg) alpha_du alpha_pr  ls
 260 3.3681618e+000 1.66e-001 6.92e-004  -5.7 1.82e+000  -5.8 1.00e+000 1.00e+000h  1
 261 3.3681349e+000 2.95e-002 1.10e-004  -5.7 8.05e-001  -5.3 1.00e+000 1.00e+000h  1
 262 3.3681298e+000 3.49e-002 1.79e-003  -5.7 5.71e+000    -  4.75e-001 5.37e-002h  2
 263 3.3681189e+000 4.13e-002 1.64e-004  -5.7 1.05e+000    -  1.00e+000 1.00e+000h  1
 264 3.3681163e+000 1.93e-003 6.67e-006  -5.7 2.12e-001    -  1.00e+000 1.00e+000h  1
 265 3.3681164e+000 4.81e-005 8.70e-008  -5.7 2.47e-002    -  1.00e+000 1.00e+000h  1
 266 3.3630391e+000 4.05e-001 1.32e-003  -7.0 2.07e+000    -  4.34e-001 3.46e-001f  1
 267 3.3620875e+000 3.62e-001 1.07e-003  -7.0 6.77e+000    -  8.77e-002 9.99e-002h  1
 268 3.3601688e+000 3.98e-001 4.49e-003  -7.0 2.12e+000    -  5.21e-001 2.31e-001h  1
 269 3.3601593e+000 3.98e-001 4.88e-003  -7.0 1.39e+001    -  5.19e-002 1.40e-003h  1
iter    objective    inf_pr   inf_du lg(mu)  ||d||  lg(rg) alpha_du alpha_pr  ls
 270 3.3590778e+000 3.20e-001 9.20e-003  -7.0 1.61e+000    -  8.66e-001 1.75e-001f  1
 271 3.3569471e+000 1.80e-001 6.22e-003  -7.0 1.66e+000    -  1.00e+000 4.38e-001h  1
 272 3.3556125e+000 1.62e-001 2.93e-003  -7.0 1.14e+000    -  1.00e+000 5.42e-001h  1
 273 3.3550122e+000 8.36e-002 1.20e-003  -7.0 5.91e-001    -  1.00e+000 5.92e-001h  1
 274 3.3546311e+000 2.37e-002 2.75e-006  -7.0 2.55e-001    -  1.00e+000 1.00e+000h  1
 275 3.3546339e+000 5.67e-005 5.70e-008  -7.0 2.68e-002    -  1.00e+000 1.00e+000h  1
 276 3.3546338e+000 5.45e-008 5.30e-012  -7.0 3.16e-003    -  1.00e+000 1.00e+000h  1

Number of Iterations....: 276

                                   (scaled)                 (unscaled)
Objective...............:  3.3546337648880007e+000   3.3546337648880007e+000
Dual infeasibility......:  5.3013161894176208e-012   5.3013161894176208e-012
Constraint violation....:  1.8009931248895766e-008   5.4453501263651560e-008
Complementarity.........:  9.1085359949287046e-008   9.1085359949287046e-008
Overall NLP error.......:  9.1085359949287046e-008   9.1085359949287046e-008


Number of objective function evaluations             = 292
Number of objective gradient evaluations             = 277
Number of equality constraint evaluations            = 292
Number of inequality constraint evaluations          = 292
Number of equality constraint Jacobian evaluations   = 277
Number of inequality constraint Jacobian evaluations = 277
Number of Lagrangian Hessian evaluations             = 276
Total CPU secs in IPOPT (w/o function evaluations)   =    115.161
Total CPU secs in NLP function evaluations           =     14.454

EXIT: Optimal Solution Found.
               t_proc [s]   t_wall [s]    n_eval
       nlp_f        0.169        0.172       292
       nlp_g         1.07         1.06       292
  nlp_grad_f        0.362        0.359       278
  nlp_hess_l         5.79          5.8       276
   nlp_jac_g          6.8         6.78       278
      solver          130          130         1
